4 
5  20 42 
6  07 27 46 
7  00 15 29 45 
8  00 15 30 45 
9  00 15 29 44 59 
10  14 29 44 59 
11  14 29 44 59 
12  14 29 44 59 
13  14 30 45 
14  00 15 30 45 
15  00 16 31 46 
16  01 16 31 46 
17  01 16 31 46 
18  01 16 31 46 
19  01 16 31 46 
20  01 16 31 47 
21  01 16 31 46 
22  01 16 33 47 
23  03 27 
0 
